nNurses = 89;
nHours = 34;
minHours = 5;
maxHours = 14;
maxConsec = 9;
maxPresence = 7;
demand = [35, 36, 37, 33, 33, 31, 34, 35, 32, 35, 34, 31, 33, 32, 33, 36, 32, 36, 37, 36, 33, 36, 34, 32, 29, 34, 31, 33, 36, 36, 35, 37, 33, 29];
